;; Mutation-Based Equivalence Benchmark
;; Source:     AutomatArk / instance10428.smt2
;; Mutations:  range_shrink_lo, literal_char_inc
;; Status:     sat
;;
;; Original regex vs mutated regex
;; Equivalence check: unsat ⟺ L(R1) = L(R2)

(set-info :smt-lib-version 2.6)
(set-info :category "mutation")
(set-info :status sat)
(set-logic QF_S)


;; R1: original
;; R2: mutated (range_shrink_lo, literal_char_inc)
(assert
  (not
    (=
      (re.++ (re.union (re.++ (re.union (str.to_re "+31") (str.to_re "0031")) (re.union (str.to_re " ") (str.to_re "\u{9}") (str.to_re "\u{a}") (str.to_re "\u{c}") (str.to_re "\u{d}")) (str.to_re "(0)") ((_ re.loop 9 9) (re.range "0" "9"))) (re.++ (re.union (str.to_re "+31") (str.to_re "0031")) (re.union (str.to_re " ") (str.to_re "\u{9}") (str.to_re "\u{a}") (str.to_re "\u{c}") (str.to_re "\u{d}")) (str.to_re "0") ((_ re.loop 9 9) (re.range "0" "9"))) (re.++ (str.to_re "0") ((_ re.loop 9 9) (re.range "0" "9")))) (str.to_re "\u{a}"))
      (re.++ (re.union (re.++ (re.union (str.to_re "+31") (str.to_re "0031")) (re.union (str.to_re " ") (str.to_re "\u{9}") (str.to_re "\u{a}") (str.to_re "\u{c}") (str.to_re "\u{d}")) (str.to_re "(0)") ((_ re.loop 9 9) (re.range "0" "9"))) (re.++ (re.union (str.to_re "+31") (str.to_re "0031")) (re.union (str.to_re " ") (str.to_re "\u{9}") (str.to_re "\u{a}") (str.to_re "\u{c}") (str.to_re "\u{d}")) (str.to_re "1") ((_ re.loop 9 9) (re.range "0" "9"))) (re.++ (str.to_re "0") ((_ re.loop 9 9) (re.range "1" "9")))) (str.to_re "\u{a}")))))

(check-sat)
(exit)
